problems/csplib-prob015/SchursLemma-models/noch/O2/lingeling/model_1_3-3-13-solution000001.eprime-solution
language ESSENCE' 1.0

letting boxes_PartitionAsSet_ExplicitR5_ExplicitVarSizeWithMarker_Marker be [4, 4, 5; int(1..3)]
letting boxes_PartitionAsSet_ExplicitR5_ExplicitVarSizeWithMarker_Values be
        [[1, 7, 9, 11, 1, 1, 1, 1, 1, 1, 1, 1, 1; int(1..13)], [3, 4, 8, 10, 1, 1, 1, 1, 1, 1, 1, 1, 1; int(1..13)],
         [2, 5, 6, 12, 13, 1, 1, 1, 1, 1, 1, 1, 1; int(1..13)]; int(1..3)]
