problems/csplib-prob015/SchursLemma-models/noch/O2/lingeling/model_1_3-3-13-solution000001.solution
language Essence 1.3

letting boxes be partition({1, 7, 9, 11}, {2, 5, 6, 12, 13}, {3, 4, 8, 10})
